p cnf 50 15
x -1 4 6 -7 -8 9 11 12 14 18 20 -22 26 -27 -29 30 -31 32 37 -39 42 43 44 -48 -50 0
x 1 -2 7 -8 10 -11 13 15 16 -20 -21 22 26 -28 29 -30 33 38 -39 -46 47 -48 50 0
x 1 -2 3 -4 6 -7 -8 -9 10 12 -14 16 17 22 -24 26 27 29 31 -34 35 -36 -37 40 -44 -46 -47 -49 50 0
x -1 2 4 -10 -12 13 15 -16 18 -19 22 -23 24 -27 31 -32 34 35 -37 38 -41 -42 -44 -45 -46 -50 0
x 1 7 -10 -16 17 18 -19 -20 22 24 -26 28 29 -32 33 -35 36 -37 38 42 43 48 -49 0
x -1 2 3 9 10 12 -14 15 16 18 20 23 -24 -26 -27 30 33 35 -36 -37 38 39 -41 -42 45 -50 0
x 1 -2 -7 8 9 11 12 13 -14 -15 16 -17 -19 20 21 -22 -23 -24 28 -30 31 33 -35 -38 -40 -41 -43 -45 47 48 50 0
x 1 -2 3 4 12 -14 -15 16 -19 -20 23 24 25 -28 -29 30 -31 34 36 38 39 -43 46 48 -49 50 0
x 2 -3 4 -6 11 13 -20 -21 -22 23 -31 -33 -36 37 38 39 -40 41 -42 -44 46 47 -48 -49 50 0
x -1 3 -8 -13 -18 23 25 -26 -28 29 -30 31 -32 -33 -38 -39 44 -48 -50 0
x 1 2 6 7 -9 -12 -14 -15 16 -21 22 -23 -28 -29 -33 -34 -36 38 42 44 -46 -47 48 50 0
x -1 2 -4 -8 10 -11 14 15 -18 -22 -24 25 -27 -29 31 -33 -34 35 -36 37 -40 -42 -43 -44 47 48 49 0
x -2 3 6 -7 9 13 16 -18 -21 -22 23 25 -28 -30 34 -35 37 -38 39 40 41 -43 45 -47 48 0
x -3 6 -7 8 -9 10 -12 -17 -19 20 22 23 -25 26 -27 29 34 35 -36 -39 40 -44 -46 -48 49 0
x 1 8 -10 -11 -14 17 19 20 24 29 30 32 33 34 36 37 -40 44 -45 0
g -15